(set-logic HORN)
(set-info :source |
    Benchmark: C_VC
    Output by Princess (http://www.philipp.ruemmer.org/princess.shtml)
|)
(set-info :status sat)
(declare-heap Heap Addr HeapObject
 defObj
 ((HeapObject 0)) (
  (
   (O_Int (getInt Int))
   (O_UInt (getUInt Int))
   (O_Addr (getAddr Addr))
   (defObj)
  )
))
(declare-fun inv_main11 (Heap Int Int Int Int AddrRange AddrRange AddrRange AddrRange Int Int Int Int) Bool)
(declare-fun inv_main13 (Heap Int Int Int Int AddrRange AddrRange AddrRange AddrRange Int Int Int Int) Bool)
(declare-fun inv_main16 (Heap Int Int Int Int AddrRange AddrRange AddrRange AddrRange Int Int Int Int) Bool)
(declare-fun inv_main18 (Heap Int Int Int Int AddrRange AddrRange AddrRange AddrRange Int Int Int Int Int) Bool)
(declare-fun inv_main23 (Heap Int Int Int Int AddrRange AddrRange AddrRange AddrRange Int Int Int Int) Bool)
(declare-fun inv_main24 (Heap Int Int Int Int AddrRange AddrRange AddrRange AddrRange Int Int Int Int) Bool)
(declare-fun inv_main26 (Heap Int Int Int Int AddrRange AddrRange AddrRange AddrRange Int Int Int Int) Bool)
(declare-fun inv_main28 (Heap Int Int Int Int AddrRange AddrRange AddrRange AddrRange Int Int Int Int) Bool)
(declare-fun inv_main30 (Heap Int Int Int Int AddrRange AddrRange AddrRange AddrRange Int Int Int Int) Bool)
(declare-fun inv_main32 (Heap Int Int Int Int AddrRange AddrRange AddrRange AddrRange Int Int Int Int Int) Bool)
(declare-fun inv_main33 (Heap Int Int Int Int AddrRange AddrRange AddrRange AddrRange Int Int Int Int Int Int) Bool)
(declare-fun inv_main34 (Heap Int Int Int Int AddrRange AddrRange AddrRange AddrRange Int Int Int Int Int) Bool)
(declare-fun inv_main35 (Heap Int Int Int Int AddrRange AddrRange AddrRange AddrRange Int Int Int Int Int) Bool)
(declare-fun inv_main37 (Heap Int Int Int Int AddrRange AddrRange AddrRange AddrRange Int Int Int Int) Bool)
(declare-fun inv_main38 (Heap Int Int Int Int AddrRange AddrRange AddrRange AddrRange Int Int Int Int) Bool)
(declare-fun inv_main40 (Heap Int Int Int Int AddrRange AddrRange AddrRange AddrRange Int Int Int Int) Bool)
(declare-fun inv_main42 (Heap Int Int Int Int AddrRange AddrRange AddrRange AddrRange Int Int Int Int) Bool)
(declare-fun inv_main46 (Heap Int Int Int Int AddrRange AddrRange AddrRange AddrRange Int Int Int Int Int) Bool)
(declare-fun inv_main47 (Heap Int Int Int Int AddrRange AddrRange AddrRange AddrRange Int Int Int Int Int Int) Bool)
(declare-fun inv_main50 (Heap Int Int Int Int AddrRange AddrRange AddrRange AddrRange Int Int Int Int) Bool)
(assert (forall ((var0 Int) (var1 Int) (var2 Int) (var3 Int) (var4 AddrRange) (var5 AddrRange) (var6 AddrRange) (var7 AddrRange) (var8 Int) (var9 Int) (var10 Int) (var11 Int) (var12 Int) (var13 Heap) (var14 AddrRange) (var15 AddrRange) (var16 AddrRange) (var17 Int) (var18 Int) (var19 Int) (var20 Int) (var21 Heap) (var22 AddrRange) (var23 AddrRange) (var24 Int) (var25 Int) (var26 Int) (var27 Int) (var28 Heap) (var29 AddrRange) (var30 Int) (var31 Int) (var32 Int) (var33 Int) (var34 Heap) (var35 Int) (var36 Heap)) (or (not (and (and (and (and (and (= var36 emptyHeap) (= var35 899)) (and (and (and (and (and (= var34 (write (write (write (write (write (write (write (write (write (write (write (write (write (write (write (write (write (write (write (write (newBatchHeap (batchAlloc emptyHeap (O_Int 0) 20)) (nthAddrRange (newAddrRange (batchAlloc emptyHeap (O_Int 0) 20)) 0) (O_Int 0)) (nthAddrRange (newAddrRange (batchAlloc emptyHeap (O_Int 0) 20)) 1) (O_Int 4)) (nthAddrRange (newAddrRange (batchAlloc emptyHeap (O_Int 0) 20)) 2) (O_Int 1)) (nthAddrRange (newAddrRange (batchAlloc emptyHeap (O_Int 0) 20)) 3) (O_Int 1)) (nthAddrRange (newAddrRange (batchAlloc emptyHeap (O_Int 0) 20)) 4) (O_Int 0)) (nthAddrRange (newAddrRange (batchAlloc emptyHeap (O_Int 0) 20)) 5) (O_Int 0)) (nthAddrRange (newAddrRange (batchAlloc emptyHeap (O_Int 0) 20)) 6) (O_Int 1)) (nthAddrRange (newAddrRange (batchAlloc emptyHeap (O_Int 0) 20)) 7) (O_Int 3)) (nthAddrRange (newAddrRange (batchAlloc emptyHeap (O_Int 0) 20)) 8) (O_Int 4)) (nthAddrRange (newAddrRange (batchAlloc emptyHeap (O_Int 0) 20)) 9) (O_Int 4)) (nthAddrRange (newAddrRange (batchAlloc emptyHeap (O_Int 0) 20)) 10) (O_Int 2)) (nthAddrRange (newAddrRange (batchAlloc emptyHeap (O_Int 0) 20)) 11) (O_Int 2)) (nthAddrRange (newAddrRange (batchAlloc emptyHeap (O_Int 0) 20)) 12) (O_Int 3)) (nthAddrRange (newAddrRange (batchAlloc emptyHeap (O_Int 0) 20)) 13) (O_Int 0)) (nthAddrRange (newAddrRange (batchAlloc emptyHeap (O_Int 0) 20)) 14) (O_Int 0)) (nthAddrRange (newAddrRange (batchAlloc emptyHeap (O_Int 0) 20)) 15) (O_Int 3)) (nthAddrRange (newAddrRange (batchAlloc emptyHeap (O_Int 0) 20)) 16) (O_Int 1)) (nthAddrRange (newAddrRange (batchAlloc emptyHeap (O_Int 0) 20)) 17) (O_Int 2)) (nthAddrRange (newAddrRange (batchAlloc emptyHeap (O_Int 0) 20)) 18) (O_Int 2)) (nthAddrRange (newAddrRange (batchAlloc emptyHeap (O_Int 0) 20)) 19) (O_Int 3))) (= var33 var35)) (= var32 5)) (= var31 20)) (= var30 0)) (= var29 (newAddrRange (batchAlloc emptyHeap (O_Int 0) 20))))) (and (and (and (and (and (and (= var28 (write (write (write (write (write (write (write (write (write (write (write (write (write (write (write (write (write (write (write (write (newBatchHeap (batchAlloc emptyHeap (O_Int 0) 20)) (nthAddrRange (newAddrRange (batchAlloc emptyHeap (O_Int 0) 20)) 0) (O_Int 1)) (nthAddrRange (newAddrRange (batchAlloc emptyHeap (O_Int 0) 20)) 1) (O_Int 3)) (nthAddrRange (newAddrRange (batchAlloc emptyHeap (O_Int 0) 20)) 2) (O_Int 4)) (nthAddrRange (newAddrRange (batchAlloc emptyHeap (O_Int 0) 20)) 3) (O_Int 1)) (nthAddrRange (newAddrRange (batchAlloc emptyHeap (O_Int 0) 20)) 4) (O_Int 1)) (nthAddrRange (newAddrRange (batchAlloc emptyHeap (O_Int 0) 20)) 5) (O_Int 4)) (nthAddrRange (newAddrRange (batchAlloc emptyHeap (O_Int 0) 20)) 6) (O_Int 3)) (nthAddrRange (newAddrRange (batchAlloc emptyHeap (O_Int 0) 20)) 7) (O_Int 4)) (nthAddrRange (newAddrRange (batchAlloc emptyHeap (O_Int 0) 20)) 8) (O_Int 3)) (nthAddrRange (newAddrRange (batchAlloc emptyHeap (O_Int 0) 20)) 9) (O_Int 0)) (nthAddrRange (newAddrRange (batchAlloc emptyHeap (O_Int 0) 20)) 10) (O_Int 0)) (nthAddrRange (newAddrRange (batchAlloc emptyHeap (O_Int 0) 20)) 11) (O_Int 0)) (nthAddrRange (newAddrRange (batchAlloc emptyHeap (O_Int 0) 20)) 12) (O_Int 0)) (nthAddrRange (newAddrRange (batchAlloc emptyHeap (O_Int 0) 20)) 13) (O_Int 2)) (nthAddrRange (newAddrRange (batchAlloc emptyHeap (O_Int 0) 20)) 14) (O_Int 3)) (nthAddrRange (newAddrRange (batchAlloc emptyHeap (O_Int 0) 20)) 15) (O_Int 0)) (nthAddrRange (newAddrRange (batchAlloc emptyHeap (O_Int 0) 20)) 16) (O_Int 2)) (nthAddrRange (newAddrRange (batchAlloc emptyHeap (O_Int 0) 20)) 17) (O_Int 1)) (nthAddrRange (newAddrRange (batchAlloc emptyHeap (O_Int 0) 20)) 18) (O_Int 0)) (nthAddrRange (newAddrRange (batchAlloc emptyHeap (O_Int 0) 20)) 19) (O_Int 4))) (= var27 var33)) (= var26 var32)) (= var25 var31)) (= var24 var30)) (= var23 var29)) (= var22 (newAddrRange (batchAlloc emptyHeap (O_Int 0) 20))))) (and (and (and (and (and (and (and (= var21 (write (write (write (write (write (write (write (write (write (write (write (write (write (write (write (write (write (write (write (write (newBatchHeap (batchAlloc emptyHeap (O_Int 0) 20)) (nthAddrRange (newAddrRange (batchAlloc emptyHeap (O_Int 0) 20)) 0) (O_Int 0)) (nthAddrRange (newAddrRange (batchAlloc emptyHeap (O_Int 0) 20)) 1) (O_Int 1)) (nthAddrRange (newAddrRange (batchAlloc emptyHeap (O_Int 0) 20)) 2) (O_Int 2)) (nthAddrRange (newAddrRange (batchAlloc emptyHeap (O_Int 0) 20)) 3) (O_Int 3)) (nthAddrRange (newAddrRange (batchAlloc emptyHeap (O_Int 0) 20)) 4) (O_Int 4)) (nthAddrRange (newAddrRange (batchAlloc emptyHeap (O_Int 0) 20)) 5) (O_Int 5)) (nthAddrRange (newAddrRange (batchAlloc emptyHeap (O_Int 0) 20)) 6) (O_Int 6)) (nthAddrRange (newAddrRange (batchAlloc emptyHeap (O_Int 0) 20)) 7) (O_Int 7)) (nthAddrRange (newAddrRange (batchAlloc emptyHeap (O_Int 0) 20)) 8) (O_Int 8)) (nthAddrRange (newAddrRange (batchAlloc emptyHeap (O_Int 0) 20)) 9) (O_Int 9)) (nthAddrRange (newAddrRange (batchAlloc emptyHeap (O_Int 0) 20)) 10) (O_Int 10)) (nthAddrRange (newAddrRange (batchAlloc emptyHeap (O_Int 0) 20)) 11) (O_Int 11)) (nthAddrRange (newAddrRange (batchAlloc emptyHeap (O_Int 0) 20)) 12) (O_Int 12)) (nthAddrRange (newAddrRange (batchAlloc emptyHeap (O_Int 0) 20)) 13) (O_Int 13)) (nthAddrRange (newAddrRange (batchAlloc emptyHeap (O_Int 0) 20)) 14) (O_Int 14)) (nthAddrRange (newAddrRange (batchAlloc emptyHeap (O_Int 0) 20)) 15) (O_Int 15)) (nthAddrRange (newAddrRange (batchAlloc emptyHeap (O_Int 0) 20)) 16) (O_Int 16)) (nthAddrRange (newAddrRange (batchAlloc emptyHeap (O_Int 0) 20)) 17) (O_Int 17)) (nthAddrRange (newAddrRange (batchAlloc emptyHeap (O_Int 0) 20)) 18) (O_Int 18)) (nthAddrRange (newAddrRange (batchAlloc emptyHeap (O_Int 0) 20)) 19) (O_Int 19))) (= var20 var27)) (= var19 var26)) (= var18 var25)) (= var17 var24)) (= var16 var23)) (= var15 var22)) (= var14 (newAddrRange (batchAlloc emptyHeap (O_Int 0) 20))))) (and (and (and (and (and (and (and (and (= var13 (newBatchHeap (batchAlloc emptyHeap (O_Int var12) 5))) (= var11 var20)) (= var10 var19)) (= var9 var18)) (= var8 var17)) (= var7 var16)) (= var6 var15)) (= var5 var14)) (= var4 (newAddrRange (batchAlloc emptyHeap (O_Int var12) 5)))))) (inv_main11 var13 var11 var10 var9 var8 var7 var6 var5 var4 var3 var2 var1 var0))))
(assert (forall ((var0 Int) (var1 Int) (var2 Int) (var3 Int) (var4 AddrRange) (var5 AddrRange) (var6 AddrRange) (var7 AddrRange) (var8 Int) (var9 Int) (var10 Int) (var11 Int) (var12 Heap)) (or (not (and (inv_main13 var12 var11 var10 var9 var8 var7 var6 var5 var4 var3 var2 var1 var0) (and (<= 0 (+ var10 (- 1))) (not (<= 0 (+ (+ var10 (* (- 1) var1)) (- 1))))))) (inv_main23 var12 var11 var10 var9 var8 var7 var6 var5 var4 var3 var2 0 0))))
(assert (forall ((var0 Int) (var1 Int) (var2 Int) (var3 Int) (var4 AddrRange) (var5 AddrRange) (var6 AddrRange) (var7 AddrRange) (var8 Int) (var9 Int) (var10 Int) (var11 Int) (var12 Heap)) (or (not (and (inv_main23 var12 var11 var10 var9 var8 var7 var6 var5 var4 var3 var2 var1 var0) (and (<= 0 (+ (+ var10 (* (- 1) (+ var1 1))) (- 1))) (not (<= 0 (+ (+ var9 (* (- 1) var0)) (- 1))))))) (inv_main23 var12 var11 var10 var9 var8 var7 var6 var5 var4 var3 var2 (+ var1 1) 0))))
(assert (forall ((var0 Int) (var1 Int) (var2 Int) (var3 Int) (var4 AddrRange) (var5 AddrRange) (var6 AddrRange) (var7 AddrRange) (var8 Int) (var9 Int) (var10 Int) (var11 Int) (var12 Heap) (var13 Int) (var14 Int) (var15 Int) (var16 Int) (var17 Int) (var18 AddrRange) (var19 AddrRange) (var20 AddrRange) (var21 AddrRange) (var22 Int) (var23 Int) (var24 Int) (var25 Int) (var26 Heap)) (or (not (and (inv_main35 var26 var25 var24 var23 var22 var21 var20 var19 var18 var17 var16 var15 var14 var13) (and (and (is-O_Int (read var26 (nthAddrRange var18 var17))) (is-O_Int (read var26 (nthAddrRange var18 var17)))) (and (and (and (and (and (and (and (and (and (and (and (and (= var12 (write var26 (nthAddrRange var18 var17) (O_Int var13))) (= var11 var25)) (= var10 var24)) (= var9 var23)) (= var8 var22)) (= var7 var21)) (= var6 var20)) (= var5 var19)) (= var4 var18)) (= var3 var17)) (= var2 var16)) (= var1 var15)) (= var0 var14))))) (inv_main23 var12 var11 var10 var9 var8 var7 var6 var5 var4 var3 var2 var1 (+ var0 1)))))
(assert (forall ((var0 Int) (var1 Int) (var2 Int) (var3 Int) (var4 Int) (var5 Int) (var6 AddrRange) (var7 AddrRange) (var8 AddrRange) (var9 AddrRange) (var10 Int) (var11 Int) (var12 Int) (var13 Int) (var14 Heap)) (or (not (and (inv_main33 var14 var13 var12 var11 var10 var9 var8 var7 var6 var5 var4 var3 var2 var1 var0) (and (is-O_Int (read var14 (nthAddrRange var7 var2))) (not (<= 0 (+ (+ var1 (* (- 1) (+ var0 (getInt (read var14 (nthAddrRange var7 var2)))))) (- 1))))))) (inv_main23 var14 var13 var12 var11 var10 var9 var8 var7 var6 var5 var4 var3 (+ var2 1)))))
(assert (forall ((var0 Int) (var1 Int) (var2 Int) (var3 Int) (var4 Int) (var5 Int) (var6 AddrRange) (var7 AddrRange) (var8 AddrRange) (var9 AddrRange) (var10 Int) (var11 Int) (var12 Int) (var13 Int) (var14 Heap)) (or (not (and (inv_main47 var14 var13 var12 var11 var10 var9 var8 var7 var6 var5 var4 var3 var2 var1 var0) (and (is-O_Int (read var14 (nthAddrRange var7 var3))) (not (<= 0 (+ (+ var1 (* (- 1) (+ var0 (getInt (read var14 (nthAddrRange var7 var3)))))) (- 1))))))) (inv_main37 var14 var13 var12 var11 var10 var9 var8 var7 var6 var5 var4 (+ var3 1) var2))))
(assert (forall ((var0 Int) (var1 Int) (var2 Int) (var3 Int) (var4 AddrRange) (var5 AddrRange) (var6 AddrRange) (var7 AddrRange) (var8 Int) (var9 Int) (var10 Int) (var11 Int) (var12 Heap)) (or (not (and (inv_main13 var12 var11 var10 var9 var8 var7 var6 var5 var4 var3 var2 var1 var0) (and (not (<= 0 (+ var10 (- 1)))) (not (<= 0 (+ (+ var10 (* (- 1) var1)) (- 1))))))) (inv_main37 var12 var11 var10 var9 var8 var7 var6 var5 var4 var3 var2 0 var0))))
(assert (forall ((var0 Int) (var1 Int) (var2 Int) (var3 Int) (var4 AddrRange) (var5 AddrRange) (var6 AddrRange) (var7 AddrRange) (var8 Int) (var9 Int) (var10 Int) (var11 Int) (var12 Heap)) (or (not (and (inv_main23 var12 var11 var10 var9 var8 var7 var6 var5 var4 var3 var2 var1 var0) (and (not (<= 0 (+ (+ var10 (* (- 1) (+ var1 1))) (- 1)))) (not (<= 0 (+ (+ var9 (* (- 1) var0)) (- 1))))))) (inv_main37 var12 var11 var10 var9 var8 var7 var6 var5 var4 var3 var2 0 var0))))
(assert (forall ((var0 Int) (var1 Int) (var2 Int) (var3 Int) (var4 AddrRange) (var5 AddrRange) (var6 AddrRange) (var7 AddrRange) (var8 Int) (var9 Int) (var10 Int) (var11 Int) (var12 Heap)) (or (not (and (inv_main13 var12 var11 var10 var9 var8 var7 var6 var5 var4 var3 var2 var1 var0) (and (not (= var1 var8)) (<= 0 (+ (+ var10 (* (- 1) var1)) (- 1)))))) (inv_main18 var12 var11 var10 var9 var8 var7 var6 var5 var4 var3 var2 var1 var0 var11))))
(assert (forall ((var0 Int) (var1 Int) (var2 Int) (var3 Int) (var4 Int) (var5 AddrRange) (var6 AddrRange) (var7 AddrRange) (var8 AddrRange) (var9 Int) (var10 Int) (var11 Int) (var12 Int) (var13 Heap) (var14 Int) (var15 Int) (var16 Int) (var17 Int) (var18 AddrRange) (var19 AddrRange) (var20 AddrRange) (var21 AddrRange) (var22 Int) (var23 Int) (var24 Int) (var25 Int) (var26 Heap)) (or (not (and (inv_main38 var26 var25 var24 var23 var22 var21 var20 var19 var18 var17 var16 var15 var14) (and (is-O_Int (read var26 (nthAddrRange var20 var15))) (and (and (and (and (and (and (and (and (and (and (and (and (and (= var13 var26) (= var12 var25)) (= var11 var24)) (= var10 var23)) (= var9 var22)) (= var8 var21)) (= var7 var20)) (= var6 var19)) (= var5 var18)) (= var4 var17)) (= var3 var16)) (= var2 var15)) (= var1 var14)) (= var0 (getInt (read var26 (nthAddrRange var20 var15)))))))) (inv_main40 var13 var12 var11 var10 var9 var8 var7 var6 var5 var0 var3 var2 var1))))
(assert (forall ((var0 Int) (var1 Int) (var2 Int) (var3 Int) (var4 AddrRange) (var5 AddrRange) (var6 AddrRange) (var7 AddrRange) (var8 Int) (var9 Int) (var10 Int) (var11 Int) (var12 Heap)) (or (not (and (inv_main28 var12 var11 var10 var9 var8 var7 var6 var5 var4 var3 var2 var1 var0) (is-O_Int (read var12 (nthAddrRange var4 var3))))) (inv_main32 var12 var11 var10 var9 var8 var7 var6 var5 var4 var3 var2 var1 var0 (getInt (read var12 (nthAddrRange var4 var3)))))))
(assert (forall ((var0 Int) (var1 Int) (var2 Int) (var3 Int) (var4 Int) (var5 AddrRange) (var6 AddrRange) (var7 AddrRange) (var8 AddrRange) (var9 Int) (var10 Int) (var11 Int) (var12 Int) (var13 Heap) (var14 Int) (var15 Int) (var16 Int) (var17 Int) (var18 AddrRange) (var19 AddrRange) (var20 AddrRange) (var21 AddrRange) (var22 Int) (var23 Int) (var24 Int) (var25 Int) (var26 Heap)) (or (not (and (inv_main40 var26 var25 var24 var23 var22 var21 var20 var19 var18 var17 var16 var15 var14) (and (is-O_Int (read var26 (nthAddrRange var21 var15))) (and (and (and (and (and (and (and (and (and (and (and (and (and (= var13 var26) (= var12 var25)) (= var11 var24)) (= var10 var23)) (= var9 var22)) (= var8 var21)) (= var7 var20)) (= var6 var19)) (= var5 var18)) (= var4 var17)) (= var3 var16)) (= var2 var15)) (= var1 var14)) (= var0 (getInt (read var26 (nthAddrRange var21 var15)))))))) (inv_main42 var13 var12 var11 var10 var9 var8 var7 var6 var5 var4 var0 var2 var1))))
(assert (forall ((var0 Int) (var1 Int) (var2 Int) (var3 Int) (var4 Int) (var5 AddrRange) (var6 AddrRange) (var7 AddrRange) (var8 AddrRange) (var9 Int) (var10 Int) (var11 Int) (var12 Int) (var13 Heap) (var14 Int) (var15 Int) (var16 Int) (var17 Int) (var18 AddrRange) (var19 AddrRange) (var20 AddrRange) (var21 AddrRange) (var22 Int) (var23 Int) (var24 Int) (var25 Int) (var26 Heap)) (or (not (and (inv_main26 var26 var25 var24 var23 var22 var21 var20 var19 var18 var17 var16 var15 var14) (and (is-O_Int (read var26 (nthAddrRange var21 var14))) (and (and (and (and (and (and (and (and (and (and (and (and (and (= var13 var26) (= var12 var25)) (= var11 var24)) (= var10 var23)) (= var9 var22)) (= var8 var21)) (= var7 var20)) (= var6 var19)) (= var5 var18)) (= var4 var17)) (= var3 var16)) (= var2 var15)) (= var1 var14)) (= var0 (getInt (read var26 (nthAddrRange var21 var14)))))))) (inv_main28 var13 var12 var11 var10 var9 var8 var7 var6 var5 var4 var0 var2 var1))))
(assert (forall ((var0 Int) (var1 Int) (var2 Int) (var3 Int) (var4 Int) (var5 AddrRange) (var6 AddrRange) (var7 AddrRange) (var8 AddrRange) (var9 Int) (var10 Int) (var11 Int) (var12 Int) (var13 Heap)) (or (not (and (inv_main46 var13 var12 var11 var10 var9 var8 var7 var6 var5 var4 var3 var2 var1 var0) (is-O_Int (read var13 (nthAddrRange var5 var3))))) (inv_main47 var13 var12 var11 var10 var9 var8 var7 var6 var5 var4 var3 var2 var1 var0 (getInt (read var13 (nthAddrRange var5 var3)))))))
(assert (forall ((var0 Int) (var1 Int) (var2 Int) (var3 Int) (var4 Int) (var5 AddrRange) (var6 AddrRange) (var7 AddrRange) (var8 AddrRange) (var9 Int) (var10 Int) (var11 Int) (var12 Int) (var13 Heap)) (or (not (and (inv_main34 var13 var12 var11 var10 var9 var8 var7 var6 var5 var4 var3 var2 var1 var0) (is-O_Int (read var13 (nthAddrRange var6 var1))))) (inv_main35 var13 var12 var11 var10 var9 var8 var7 var6 var5 var4 var3 var2 var1 (+ var0 (getInt (read var13 (nthAddrRange var6 var1))))))))
(assert (forall ((var0 Int) (var1 Int) (var2 Int) (var3 Int) (var4 AddrRange) (var5 AddrRange) (var6 AddrRange) (var7 AddrRange) (var8 Int) (var9 Int) (var10 Int) (var11 Int) (var12 Heap)) (or (not (inv_main11 var12 var11 var10 var9 var8 var7 var6 var5 var4 var3 var2 var1 var0)) (inv_main13 var12 var11 var10 var9 var8 var7 var6 var5 var4 var3 var2 0 var0))))
(assert (forall ((var0 Int) (var1 Int) (var2 Int) (var3 Int) (var4 AddrRange) (var5 AddrRange) (var6 AddrRange) (var7 AddrRange) (var8 Int) (var9 Int) (var10 Int) (var11 Int) (var12 Heap) (var13 Int) (var14 Int) (var15 Int) (var16 Int) (var17 AddrRange) (var18 AddrRange) (var19 AddrRange) (var20 AddrRange) (var21 Int) (var22 Int) (var23 Int) (var24 Int) (var25 Heap)) (or (not (and (inv_main16 var25 var24 var23 var22 var21 var20 var19 var18 var17 var16 var15 var14 var13) (and (and (is-O_Int (read var25 (nthAddrRange var17 var14))) (is-O_Int (read var25 (nthAddrRange var17 var14)))) (and (and (and (and (and (and (and (and (and (and (and (and (= var12 (write var25 (nthAddrRange var17 var14) (O_Int 0))) (= var11 var24)) (= var10 var23)) (= var9 var22)) (= var8 var21)) (= var7 var20)) (= var6 var19)) (= var5 var18)) (= var4 var17)) (= var3 var16)) (= var2 var15)) (= var1 var14)) (= var0 var13))))) (inv_main13 var12 var11 var10 var9 var8 var7 var6 var5 var4 var3 var2 (+ var1 1) var0))))
(assert (forall ((var0 Int) (var1 Int) (var2 Int) (var3 Int) (var4 AddrRange) (var5 AddrRange) (var6 AddrRange) (var7 AddrRange) (var8 Int) (var9 Int) (var10 Int) (var11 Int) (var12 Heap) (var13 Int) (var14 Int) (var15 Int) (var16 Int) (var17 Int) (var18 AddrRange) (var19 AddrRange) (var20 AddrRange) (var21 AddrRange) (var22 Int) (var23 Int) (var24 Int) (var25 Int) (var26 Heap)) (or (not (and (inv_main18 var26 var25 var24 var23 var22 var21 var20 var19 var18 var17 var16 var15 var14 var13) (and (and (is-O_Int (read var26 (nthAddrRange var18 var15))) (is-O_Int (read var26 (nthAddrRange var18 var15)))) (and (and (and (and (and (and (and (and (and (and (and (and (= var12 (write var26 (nthAddrRange var18 var15) (O_Int var13))) (= var11 var25)) (= var10 var24)) (= var9 var23)) (= var8 var22)) (= var7 var21)) (= var6 var20)) (= var5 var19)) (= var4 var18)) (= var3 var17)) (= var2 var16)) (= var1 var15)) (= var0 var14))))) (inv_main13 var12 var11 var10 var9 var8 var7 var6 var5 var4 var3 var2 (+ var1 1) var0))))
(assert (forall ((var0 Int) (var1 Int) (var2 Int) (var3 Int) (var4 AddrRange) (var5 AddrRange) (var6 AddrRange) (var7 AddrRange) (var8 Int) (var9 Int) (var10 Int) (var11 Int) (var12 Heap)) (or (not (and (inv_main37 var12 var11 var10 var9 var8 var7 var6 var5 var4 var3 var2 var1 var0) (and (<= 0 (+ var10 (- 1))) (not (<= 0 (+ (+ var9 (* (- 1) var1)) (- 1))))))) (inv_main50 var12 var11 var10 var9 var8 var7 var6 var5 var4 var3 var2 0 var0))))
(assert (forall ((var0 Int) (var1 Int) (var2 Int) (var3 Int) (var4 AddrRange) (var5 AddrRange) (var6 AddrRange) (var7 AddrRange) (var8 Int) (var9 Int) (var10 Int) (var11 Int) (var12 Heap)) (or (not (and (inv_main50 var12 var11 var10 var9 var8 var7 var6 var5 var4 var3 var2 var1 var0) (and (<= 0 (+ (+ var10 (* (- 1) (+ var1 1))) (- 1))) (is-O_Int (read var12 (nthAddrRange var4 var1)))))) (inv_main50 var12 var11 var10 var9 var8 var7 var6 var5 var4 var3 var2 (+ var1 1) var0))))
(assert (forall ((var0 Int) (var1 Int) (var2 Int) (var3 Int) (var4 Int) (var5 AddrRange) (var6 AddrRange) (var7 AddrRange) (var8 AddrRange) (var9 Int) (var10 Int) (var11 Int) (var12 Int) (var13 Heap)) (or (not (and (inv_main32 var13 var12 var11 var10 var9 var8 var7 var6 var5 var4 var3 var2 var1 var0) (is-O_Int (read var13 (nthAddrRange var5 var3))))) (inv_main33 var13 var12 var11 var10 var9 var8 var7 var6 var5 var4 var3 var2 var1 var0 (getInt (read var13 (nthAddrRange var5 var3)))))))
(assert (forall ((var0 Int) (var1 Int) (var2 Int) (var3 Int) (var4 Int) (var5 Int) (var6 AddrRange) (var7 AddrRange) (var8 AddrRange) (var9 AddrRange) (var10 Int) (var11 Int) (var12 Int) (var13 Int) (var14 Heap)) (or (not (and (inv_main33 var14 var13 var12 var11 var10 var9 var8 var7 var6 var5 var4 var3 var2 var1 var0) (and (is-O_Int (read var14 (nthAddrRange var7 var2))) (<= 0 (+ (+ var1 (* (- 1) (+ var0 (getInt (read var14 (nthAddrRange var7 var2)))))) (- 1)))))) (inv_main30 var14 var13 var12 var11 var10 var9 var8 var7 var6 var5 var4 var3 var2))))
(assert (forall ((var0 Int) (var1 Int) (var2 Int) (var3 Int) (var4 AddrRange) (var5 AddrRange) (var6 AddrRange) (var7 AddrRange) (var8 Int) (var9 Int) (var10 Int) (var11 Int) (var12 Heap)) (or (not (and (inv_main37 var12 var11 var10 var9 var8 var7 var6 var5 var4 var3 var2 var1 var0) (<= 0 (+ (+ var9 (* (- 1) var1)) (- 1))))) (inv_main38 var12 var11 var10 var9 var8 var7 var6 var5 var4 var3 var2 var1 var0))))
(assert (forall ((var0 Int) (var1 Int) (var2 Int) (var3 Int) (var4 AddrRange) (var5 AddrRange) (var6 AddrRange) (var7 AddrRange) (var8 Int) (var9 Int) (var10 Int) (var11 Int) (var12 Heap)) (or (not (and (inv_main30 var12 var11 var10 var9 var8 var7 var6 var5 var4 var3 var2 var1 var0) (is-O_Int (read var12 (nthAddrRange var4 var2))))) (inv_main34 var12 var11 var10 var9 var8 var7 var6 var5 var4 var3 var2 var1 var0 (getInt (read var12 (nthAddrRange var4 var2)))))))
(assert (forall ((var0 Int) (var1 Int) (var2 Int) (var3 Int) (var4 AddrRange) (var5 AddrRange) (var6 AddrRange) (var7 AddrRange) (var8 Int) (var9 Int) (var10 Int) (var11 Int) (var12 Heap)) (or (not (and (inv_main13 var12 var11 var10 var9 var8 var7 var6 var5 var4 var3 var2 var1 var0) (and (= var1 var8) (<= 0 (+ (+ var10 (* (- 1) var1)) (- 1)))))) (inv_main16 var12 var11 var10 var9 var8 var7 var6 var5 var4 var3 var2 var1 var0))))
(assert (forall ((var0 Int) (var1 Int) (var2 Int) (var3 Int) (var4 AddrRange) (var5 AddrRange) (var6 AddrRange) (var7 AddrRange) (var8 Int) (var9 Int) (var10 Int) (var11 Int) (var12 Heap)) (or (not (and (inv_main23 var12 var11 var10 var9 var8 var7 var6 var5 var4 var3 var2 var1 var0) (<= 0 (+ (+ var9 (* (- 1) var0)) (- 1))))) (inv_main24 var12 var11 var10 var9 var8 var7 var6 var5 var4 var3 var2 var1 var0))))
(assert (forall ((var0 Int) (var1 Int) (var2 Int) (var3 Int) (var4 Int) (var5 AddrRange) (var6 AddrRange) (var7 AddrRange) (var8 AddrRange) (var9 Int) (var10 Int) (var11 Int) (var12 Int) (var13 Heap) (var14 Int) (var15 Int) (var16 Int) (var17 Int) (var18 AddrRange) (var19 AddrRange) (var20 AddrRange) (var21 AddrRange) (var22 Int) (var23 Int) (var24 Int) (var25 Int) (var26 Heap)) (or (not (and (inv_main24 var26 var25 var24 var23 var22 var21 var20 var19 var18 var17 var16 var15 var14) (and (is-O_Int (read var26 (nthAddrRange var20 var14))) (and (and (and (and (and (and (and (and (and (and (and (and (and (= var13 var26) (= var12 var25)) (= var11 var24)) (= var10 var23)) (= var9 var22)) (= var8 var21)) (= var7 var20)) (= var6 var19)) (= var5 var18)) (= var4 var17)) (= var3 var16)) (= var2 var15)) (= var1 var14)) (= var0 (getInt (read var26 (nthAddrRange var20 var14)))))))) (inv_main26 var13 var12 var11 var10 var9 var8 var7 var6 var5 var0 var3 var2 var1))))
(assert (forall ((var0 Int) (var1 Int) (var2 Int) (var3 Int) (var4 AddrRange) (var5 AddrRange) (var6 AddrRange) (var7 AddrRange) (var8 Int) (var9 Int) (var10 Int) (var11 Int) (var12 Heap)) (or (not (and (inv_main42 var12 var11 var10 var9 var8 var7 var6 var5 var4 var3 var2 var1 var0) (is-O_Int (read var12 (nthAddrRange var4 var3))))) (inv_main46 var12 var11 var10 var9 var8 var7 var6 var5 var4 var3 var2 var1 var0 (getInt (read var12 (nthAddrRange var4 var3)))))))
(assert (forall ((var0 Int) (var1 Int) (var2 Int) (var3 Int) (var4 AddrRange) (var5 AddrRange) (var6 AddrRange) (var7 AddrRange) (var8 Int) (var9 Int) (var10 Int) (var11 Int) (var12 Heap)) (not (and (inv_main16 var12 var11 var10 var9 var8 var7 var6 var5 var4 var3 var2 var1 var0) (not (is-O_Int (read var12 (nthAddrRange var4 var1))))))))
(assert (forall ((var0 Int) (var1 Int) (var2 Int) (var3 Int) (var4 AddrRange) (var5 AddrRange) (var6 AddrRange) (var7 AddrRange) (var8 Int) (var9 Int) (var10 Int) (var11 Int) (var12 Heap)) (not (and (inv_main16 var12 var11 var10 var9 var8 var7 var6 var5 var4 var3 var2 var1 var0) (and (is-O_Int (read var12 (nthAddrRange var4 var1))) (not (within var4 (nthAddrRange var4 var1))))))))
(assert (forall ((var0 Int) (var1 Int) (var2 Int) (var3 Int) (var4 AddrRange) (var5 AddrRange) (var6 AddrRange) (var7 AddrRange) (var8 Int) (var9 Int) (var10 Int) (var11 Int) (var12 Heap)) (not (and (inv_main16 var12 var11 var10 var9 var8 var7 var6 var5 var4 var3 var2 var1 var0) (and (is-O_Int (read var12 (nthAddrRange var4 var1))) (not (is-O_Int (read var12 (nthAddrRange var4 var1)))))))))
(assert (forall ((var0 Int) (var1 Int) (var2 Int) (var3 Int) (var4 Int) (var5 AddrRange) (var6 AddrRange) (var7 AddrRange) (var8 AddrRange) (var9 Int) (var10 Int) (var11 Int) (var12 Int) (var13 Heap)) (not (and (inv_main18 var13 var12 var11 var10 var9 var8 var7 var6 var5 var4 var3 var2 var1 var0) (not (is-O_Int (read var13 (nthAddrRange var5 var2))))))))
(assert (forall ((var0 Int) (var1 Int) (var2 Int) (var3 Int) (var4 Int) (var5 AddrRange) (var6 AddrRange) (var7 AddrRange) (var8 AddrRange) (var9 Int) (var10 Int) (var11 Int) (var12 Int) (var13 Heap)) (not (and (inv_main18 var13 var12 var11 var10 var9 var8 var7 var6 var5 var4 var3 var2 var1 var0) (and (is-O_Int (read var13 (nthAddrRange var5 var2))) (not (within var5 (nthAddrRange var5 var2))))))))
(assert (forall ((var0 Int) (var1 Int) (var2 Int) (var3 Int) (var4 Int) (var5 AddrRange) (var6 AddrRange) (var7 AddrRange) (var8 AddrRange) (var9 Int) (var10 Int) (var11 Int) (var12 Int) (var13 Heap)) (not (and (inv_main18 var13 var12 var11 var10 var9 var8 var7 var6 var5 var4 var3 var2 var1 var0) (and (is-O_Int (read var13 (nthAddrRange var5 var2))) (not (is-O_Int (read var13 (nthAddrRange var5 var2)))))))))
(assert (forall ((var0 Int) (var1 Int) (var2 Int) (var3 Int) (var4 AddrRange) (var5 AddrRange) (var6 AddrRange) (var7 AddrRange) (var8 Int) (var9 Int) (var10 Int) (var11 Int) (var12 Heap)) (not (and (inv_main24 var12 var11 var10 var9 var8 var7 var6 var5 var4 var3 var2 var1 var0) (not (is-O_Int (read var12 (nthAddrRange var6 var0))))))))
(assert (forall ((var0 Int) (var1 Int) (var2 Int) (var3 Int) (var4 AddrRange) (var5 AddrRange) (var6 AddrRange) (var7 AddrRange) (var8 Int) (var9 Int) (var10 Int) (var11 Int) (var12 Heap)) (not (and (inv_main24 var12 var11 var10 var9 var8 var7 var6 var5 var4 var3 var2 var1 var0) (and (is-O_Int (read var12 (nthAddrRange var6 var0))) (not (within var6 (nthAddrRange var6 var0))))))))
(assert (forall ((var0 Int) (var1 Int) (var2 Int) (var3 Int) (var4 AddrRange) (var5 AddrRange) (var6 AddrRange) (var7 AddrRange) (var8 Int) (var9 Int) (var10 Int) (var11 Int) (var12 Heap)) (not (and (inv_main26 var12 var11 var10 var9 var8 var7 var6 var5 var4 var3 var2 var1 var0) (not (is-O_Int (read var12 (nthAddrRange var7 var0))))))))
(assert (forall ((var0 Int) (var1 Int) (var2 Int) (var3 Int) (var4 AddrRange) (var5 AddrRange) (var6 AddrRange) (var7 AddrRange) (var8 Int) (var9 Int) (var10 Int) (var11 Int) (var12 Heap)) (not (and (inv_main26 var12 var11 var10 var9 var8 var7 var6 var5 var4 var3 var2 var1 var0) (and (is-O_Int (read var12 (nthAddrRange var7 var0))) (not (within var7 (nthAddrRange var7 var0))))))))
(assert (forall ((var0 Int) (var1 Int) (var2 Int) (var3 Int) (var4 AddrRange) (var5 AddrRange) (var6 AddrRange) (var7 AddrRange) (var8 Int) (var9 Int) (var10 Int) (var11 Int) (var12 Heap)) (not (and (inv_main28 var12 var11 var10 var9 var8 var7 var6 var5 var4 var3 var2 var1 var0) (not (is-O_Int (read var12 (nthAddrRange var4 var3))))))))
(assert (forall ((var0 Int) (var1 Int) (var2 Int) (var3 Int) (var4 AddrRange) (var5 AddrRange) (var6 AddrRange) (var7 AddrRange) (var8 Int) (var9 Int) (var10 Int) (var11 Int) (var12 Heap)) (not (and (inv_main28 var12 var11 var10 var9 var8 var7 var6 var5 var4 var3 var2 var1 var0) (and (is-O_Int (read var12 (nthAddrRange var4 var3))) (not (within var4 (nthAddrRange var4 var3))))))))
(assert (forall ((var0 Int) (var1 Int) (var2 Int) (var3 Int) (var4 Int) (var5 AddrRange) (var6 AddrRange) (var7 AddrRange) (var8 AddrRange) (var9 Int) (var10 Int) (var11 Int) (var12 Int) (var13 Heap)) (not (and (inv_main32 var13 var12 var11 var10 var9 var8 var7 var6 var5 var4 var3 var2 var1 var0) (not (is-O_Int (read var13 (nthAddrRange var5 var3))))))))
(assert (forall ((var0 Int) (var1 Int) (var2 Int) (var3 Int) (var4 Int) (var5 AddrRange) (var6 AddrRange) (var7 AddrRange) (var8 AddrRange) (var9 Int) (var10 Int) (var11 Int) (var12 Int) (var13 Heap)) (not (and (inv_main32 var13 var12 var11 var10 var9 var8 var7 var6 var5 var4 var3 var2 var1 var0) (and (is-O_Int (read var13 (nthAddrRange var5 var3))) (not (within var5 (nthAddrRange var5 var3))))))))
(assert (forall ((var0 Int) (var1 Int) (var2 Int) (var3 Int) (var4 Int) (var5 Int) (var6 AddrRange) (var7 AddrRange) (var8 AddrRange) (var9 AddrRange) (var10 Int) (var11 Int) (var12 Int) (var13 Int) (var14 Heap)) (not (and (inv_main33 var14 var13 var12 var11 var10 var9 var8 var7 var6 var5 var4 var3 var2 var1 var0) (not (is-O_Int (read var14 (nthAddrRange var7 var2))))))))
(assert (forall ((var0 Int) (var1 Int) (var2 Int) (var3 Int) (var4 Int) (var5 Int) (var6 AddrRange) (var7 AddrRange) (var8 AddrRange) (var9 AddrRange) (var10 Int) (var11 Int) (var12 Int) (var13 Int) (var14 Heap)) (not (and (inv_main33 var14 var13 var12 var11 var10 var9 var8 var7 var6 var5 var4 var3 var2 var1 var0) (and (is-O_Int (read var14 (nthAddrRange var7 var2))) (not (within var7 (nthAddrRange var7 var2))))))))
(assert (forall ((var0 Int) (var1 Int) (var2 Int) (var3 Int) (var4 AddrRange) (var5 AddrRange) (var6 AddrRange) (var7 AddrRange) (var8 Int) (var9 Int) (var10 Int) (var11 Int) (var12 Heap)) (not (and (inv_main30 var12 var11 var10 var9 var8 var7 var6 var5 var4 var3 var2 var1 var0) (not (is-O_Int (read var12 (nthAddrRange var4 var2))))))))
(assert (forall ((var0 Int) (var1 Int) (var2 Int) (var3 Int) (var4 AddrRange) (var5 AddrRange) (var6 AddrRange) (var7 AddrRange) (var8 Int) (var9 Int) (var10 Int) (var11 Int) (var12 Heap)) (not (and (inv_main30 var12 var11 var10 var9 var8 var7 var6 var5 var4 var3 var2 var1 var0) (and (is-O_Int (read var12 (nthAddrRange var4 var2))) (not (within var4 (nthAddrRange var4 var2))))))))
(assert (forall ((var0 Int) (var1 Int) (var2 Int) (var3 Int) (var4 Int) (var5 AddrRange) (var6 AddrRange) (var7 AddrRange) (var8 AddrRange) (var9 Int) (var10 Int) (var11 Int) (var12 Int) (var13 Heap)) (not (and (inv_main34 var13 var12 var11 var10 var9 var8 var7 var6 var5 var4 var3 var2 var1 var0) (not (is-O_Int (read var13 (nthAddrRange var6 var1))))))))
(assert (forall ((var0 Int) (var1 Int) (var2 Int) (var3 Int) (var4 Int) (var5 AddrRange) (var6 AddrRange) (var7 AddrRange) (var8 AddrRange) (var9 Int) (var10 Int) (var11 Int) (var12 Int) (var13 Heap)) (not (and (inv_main34 var13 var12 var11 var10 var9 var8 var7 var6 var5 var4 var3 var2 var1 var0) (and (is-O_Int (read var13 (nthAddrRange var6 var1))) (not (within var6 (nthAddrRange var6 var1))))))))
(assert (forall ((var0 Int) (var1 Int) (var2 Int) (var3 Int) (var4 Int) (var5 AddrRange) (var6 AddrRange) (var7 AddrRange) (var8 AddrRange) (var9 Int) (var10 Int) (var11 Int) (var12 Int) (var13 Heap)) (not (and (inv_main35 var13 var12 var11 var10 var9 var8 var7 var6 var5 var4 var3 var2 var1 var0) (not (is-O_Int (read var13 (nthAddrRange var5 var4))))))))
(assert (forall ((var0 Int) (var1 Int) (var2 Int) (var3 Int) (var4 Int) (var5 AddrRange) (var6 AddrRange) (var7 AddrRange) (var8 AddrRange) (var9 Int) (var10 Int) (var11 Int) (var12 Int) (var13 Heap)) (not (and (inv_main35 var13 var12 var11 var10 var9 var8 var7 var6 var5 var4 var3 var2 var1 var0) (and (is-O_Int (read var13 (nthAddrRange var5 var4))) (not (within var5 (nthAddrRange var5 var4))))))))
(assert (forall ((var0 Int) (var1 Int) (var2 Int) (var3 Int) (var4 Int) (var5 AddrRange) (var6 AddrRange) (var7 AddrRange) (var8 AddrRange) (var9 Int) (var10 Int) (var11 Int) (var12 Int) (var13 Heap)) (not (and (inv_main35 var13 var12 var11 var10 var9 var8 var7 var6 var5 var4 var3 var2 var1 var0) (and (is-O_Int (read var13 (nthAddrRange var5 var4))) (not (is-O_Int (read var13 (nthAddrRange var5 var4)))))))))
(assert (forall ((var0 Int) (var1 Int) (var2 Int) (var3 Int) (var4 AddrRange) (var5 AddrRange) (var6 AddrRange) (var7 AddrRange) (var8 Int) (var9 Int) (var10 Int) (var11 Int) (var12 Heap)) (not (and (inv_main38 var12 var11 var10 var9 var8 var7 var6 var5 var4 var3 var2 var1 var0) (not (is-O_Int (read var12 (nthAddrRange var6 var1))))))))
(assert (forall ((var0 Int) (var1 Int) (var2 Int) (var3 Int) (var4 AddrRange) (var5 AddrRange) (var6 AddrRange) (var7 AddrRange) (var8 Int) (var9 Int) (var10 Int) (var11 Int) (var12 Heap)) (not (and (inv_main38 var12 var11 var10 var9 var8 var7 var6 var5 var4 var3 var2 var1 var0) (and (is-O_Int (read var12 (nthAddrRange var6 var1))) (not (within var6 (nthAddrRange var6 var1))))))))
(assert (forall ((var0 Int) (var1 Int) (var2 Int) (var3 Int) (var4 AddrRange) (var5 AddrRange) (var6 AddrRange) (var7 AddrRange) (var8 Int) (var9 Int) (var10 Int) (var11 Int) (var12 Heap)) (not (and (inv_main40 var12 var11 var10 var9 var8 var7 var6 var5 var4 var3 var2 var1 var0) (not (is-O_Int (read var12 (nthAddrRange var7 var1))))))))
(assert (forall ((var0 Int) (var1 Int) (var2 Int) (var3 Int) (var4 AddrRange) (var5 AddrRange) (var6 AddrRange) (var7 AddrRange) (var8 Int) (var9 Int) (var10 Int) (var11 Int) (var12 Heap)) (not (and (inv_main40 var12 var11 var10 var9 var8 var7 var6 var5 var4 var3 var2 var1 var0) (and (is-O_Int (read var12 (nthAddrRange var7 var1))) (not (within var7 (nthAddrRange var7 var1))))))))
(assert (forall ((var0 Int) (var1 Int) (var2 Int) (var3 Int) (var4 AddrRange) (var5 AddrRange) (var6 AddrRange) (var7 AddrRange) (var8 Int) (var9 Int) (var10 Int) (var11 Int) (var12 Heap)) (not (and (inv_main42 var12 var11 var10 var9 var8 var7 var6 var5 var4 var3 var2 var1 var0) (not (is-O_Int (read var12 (nthAddrRange var4 var3))))))))
(assert (forall ((var0 Int) (var1 Int) (var2 Int) (var3 Int) (var4 AddrRange) (var5 AddrRange) (var6 AddrRange) (var7 AddrRange) (var8 Int) (var9 Int) (var10 Int) (var11 Int) (var12 Heap)) (not (and (inv_main42 var12 var11 var10 var9 var8 var7 var6 var5 var4 var3 var2 var1 var0) (and (is-O_Int (read var12 (nthAddrRange var4 var3))) (not (within var4 (nthAddrRange var4 var3))))))))
(assert (forall ((var0 Int) (var1 Int) (var2 Int) (var3 Int) (var4 Int) (var5 AddrRange) (var6 AddrRange) (var7 AddrRange) (var8 AddrRange) (var9 Int) (var10 Int) (var11 Int) (var12 Int) (var13 Heap)) (not (and (inv_main46 var13 var12 var11 var10 var9 var8 var7 var6 var5 var4 var3 var2 var1 var0) (not (is-O_Int (read var13 (nthAddrRange var5 var3))))))))
(assert (forall ((var0 Int) (var1 Int) (var2 Int) (var3 Int) (var4 Int) (var5 AddrRange) (var6 AddrRange) (var7 AddrRange) (var8 AddrRange) (var9 Int) (var10 Int) (var11 Int) (var12 Int) (var13 Heap)) (not (and (inv_main46 var13 var12 var11 var10 var9 var8 var7 var6 var5 var4 var3 var2 var1 var0) (and (is-O_Int (read var13 (nthAddrRange var5 var3))) (not (within var5 (nthAddrRange var5 var3))))))))
(assert (forall ((var0 Int) (var1 Int) (var2 Int) (var3 Int) (var4 Int) (var5 Int) (var6 AddrRange) (var7 AddrRange) (var8 AddrRange) (var9 AddrRange) (var10 Int) (var11 Int) (var12 Int) (var13 Int) (var14 Heap)) (not (and (inv_main47 var14 var13 var12 var11 var10 var9 var8 var7 var6 var5 var4 var3 var2 var1 var0) (not (is-O_Int (read var14 (nthAddrRange var7 var3))))))))
(assert (forall ((var0 Int) (var1 Int) (var2 Int) (var3 Int) (var4 Int) (var5 Int) (var6 AddrRange) (var7 AddrRange) (var8 AddrRange) (var9 AddrRange) (var10 Int) (var11 Int) (var12 Int) (var13 Int) (var14 Heap)) (not (and (inv_main47 var14 var13 var12 var11 var10 var9 var8 var7 var6 var5 var4 var3 var2 var1 var0) (and (is-O_Int (read var14 (nthAddrRange var7 var3))) (not (within var7 (nthAddrRange var7 var3))))))))
(assert (forall ((var0 Int) (var1 Int) (var2 Int) (var3 Int) (var4 AddrRange) (var5 AddrRange) (var6 AddrRange) (var7 AddrRange) (var8 Int) (var9 Int) (var10 Int) (var11 Int) (var12 Heap)) (not (and (inv_main50 var12 var11 var10 var9 var8 var7 var6 var5 var4 var3 var2 var1 var0) (not (is-O_Int (read var12 (nthAddrRange var4 var1))))))))
(assert (forall ((var0 Int) (var1 Int) (var2 Int) (var3 Int) (var4 AddrRange) (var5 AddrRange) (var6 AddrRange) (var7 AddrRange) (var8 Int) (var9 Int) (var10 Int) (var11 Int) (var12 Heap)) (not (and (inv_main50 var12 var11 var10 var9 var8 var7 var6 var5 var4 var3 var2 var1 var0) (not (within var4 (nthAddrRange var4 var1)))))))
(assert (forall ((var0 Int) (var1 Int) (var2 Int) (var3 Int) (var4 AddrRange) (var5 AddrRange) (var6 AddrRange) (var7 AddrRange) (var8 Int) (var9 Int) (var10 Int) (var11 Int) (var12 Heap)) (not (and (inv_main50 var12 var11 var10 var9 var8 var7 var6 var5 var4 var3 var2 var1 var0) (not (is-O_Int (read var12 (nthAddrRange var4 var1))))))))
(assert (forall ((var0 Int) (var1 Int) (var2 Int) (var3 Int) (var4 AddrRange) (var5 AddrRange) (var6 AddrRange) (var7 AddrRange) (var8 Int) (var9 Int) (var10 Int) (var11 Int) (var12 Heap)) (not (and (inv_main50 var12 var11 var10 var9 var8 var7 var6 var5 var4 var3 var2 var1 var0) (and (is-O_Int (read var12 (nthAddrRange var4 var1))) (not (within var4 (nthAddrRange var4 var1))))))))
(assert (forall ((var0 Int) (var1 Int) (var2 Int) (var3 Int) (var4 AddrRange) (var5 AddrRange) (var6 AddrRange) (var7 AddrRange) (var8 Int) (var9 Int) (var10 Int) (var11 Int) (var12 Heap)) (not (and (inv_main50 var12 var11 var10 var9 var8 var7 var6 var5 var4 var3 var2 var1 var0) (and (is-O_Int (read var12 (nthAddrRange var4 var1))) (not (<= 0 (getInt (read var12 (nthAddrRange var4 var1))))))))))
(check-sat)
